50
    1   478   485
    2   119   126
    3   285   248
    4    48    21
    5   560   522
    6   198   195
    7    66    43
    8    86    45
    9   338   355
   10     7    52
   11    17     9
   12    51   101
   13   162   122
   14   501   494
   15   116   138
   16   583   574
   17   100   115
   18   301   282
   19   317   367
   20   382   384
   21   471   499
   22   464   433
   23   330   282
   24   100    72
   25    53    74
   26    81   138
   27    64    56
   28   202   145
   29   255   195
   30   551   529
   31   354   399
   32   230   277
   33   272   297
   34    73   119
   35    58    42
   36   301   307
   37   467   522
   38   481   470
   39   524   498
   40   419   400
   41     1    45
   42   276   267
   43   330   372
   44   137    95
   45   186   213
   46   157   148
   47    88    87
   48   267   323
   49   271   229
   50    89    74
601
